3 
5 
4 
8 
3 
7 
5 
4 
5 
7 
11 
4 
4 
5 
9 
4 
8 
4 
5 
3 
6 
8 
5 
2 
6 
4 
6 
10 
4 
5 
7 
4 
4 
5 
5 
5 
6 
4 
4 
8 
3 
5 
8 
9 
6 
2 
5 
3 
5 
4 
4 
1 
5 
3 
5 
6 
6 
5 
1 
5 
5 
1 
3 
9 
5 
3 
2 
10 
3 
5 
1 
8 
6 
2 
10 
2 
6 
6 
1 
4 
3 
5 
6 
6 
3 
5 
10 
2 
5 
1 
2 
1 
6 
4 
3 
3 
6 
7 
6 
3 
